NAME: ACTUAL_TOURS/amz0927
TYPE: TOUR
COMMENT: RouteID_62aa97be-315c-41f8-94d6-2ccbfa9ee3bf
DIMENSION: 161
TOUR_SECTION
44
94
84
155
161
6
125
107
114
20
101
25
66
42
23
98
73
64
105
15
124
71
136
43
93
138
81
157
82
131
130
137
9
141
28
77
59
120
135
117
122
4
139
149
123
118
29
17
159
75
116
48
53
3
121
144
37
39
127
112
83
89
65
160
102
14
128
153
132
74
41
134
38
19
90
10
1
99
55
92
33
45
51
34
110
13
87
95
86
16
40
111
91
151
5
126
31
36
35
76
152
150
145
104
52
106
30
85
7
2
88
80
62
148
56
27
12
50
61
21
26
78
129
143
63
32
54
147
156
22
60
97
70
113
69
46
68
109
49
58
72
79
11
158
100
108
133
67
146
103
142
8
18
47
57
154
115
140
24
119
96
-1
EOF
